(set-logic HORN)
(set-info :source |
    Benchmark: C_VC
    Output by Princess (http://www.philipp.ruemmer.org/princess.shtml)
|)
(set-info :status unsat)
(declare-heap Heap Addr HeapObject
 defObj
 ((HeapObject 0)) (
  (
   (O_Int (getInt Int))
   (O_UInt (getUInt Int))
   (O_Addr (getAddr Addr))
   (defObj)
  )
))
(declare-fun inv_main2 (Heap Int) Bool)
(declare-fun inv_main21 (Heap Int Int Int Int AddrRange AddrRange AddrRange AddrRange Int Int Int Int) Bool)
(declare-fun inv_main24 (Heap Int Int Int Int AddrRange AddrRange AddrRange AddrRange Int Int Int Int) Bool)
(declare-fun inv_main26 (Heap Int Int Int Int AddrRange AddrRange AddrRange AddrRange Int Int Int Int Int) Bool)
(declare-fun inv_main31 (Heap Int Int Int Int AddrRange AddrRange AddrRange AddrRange Int Int Int Int) Bool)
(declare-fun inv_main32 (Heap Int Int Int Int AddrRange AddrRange AddrRange AddrRange Int Int Int Int) Bool)
(declare-fun inv_main34 (Heap Int Int Int Int AddrRange AddrRange AddrRange AddrRange Int Int Int Int) Bool)
(declare-fun inv_main36 (Heap Int Int Int Int AddrRange AddrRange AddrRange AddrRange Int Int Int Int) Bool)
(declare-fun inv_main38 (Heap Int Int Int Int AddrRange AddrRange AddrRange AddrRange Int Int Int Int) Bool)
(declare-fun inv_main40 (Heap Int Int Int Int AddrRange AddrRange AddrRange AddrRange Int Int Int Int Int) Bool)
(declare-fun inv_main41 (Heap Int Int Int Int AddrRange AddrRange AddrRange AddrRange Int Int Int Int Int Int) Bool)
(declare-fun inv_main43 (Heap Int Int Int Int AddrRange AddrRange AddrRange AddrRange Int Int Int Int) Bool)
(declare-fun inv_main44 (Heap Int Int Int Int AddrRange AddrRange AddrRange AddrRange Int Int Int Int) Bool)
(declare-fun inv_main46 (Heap Int Int Int Int AddrRange AddrRange AddrRange AddrRange Int Int Int Int) Bool)
(declare-fun inv_main48 (Heap Int Int Int Int AddrRange AddrRange AddrRange AddrRange Int Int Int Int) Bool)
(declare-fun inv_main52 (Heap Int Int Int Int AddrRange AddrRange AddrRange AddrRange Int Int Int Int Int) Bool)
(declare-fun inv_main53 (Heap Int Int Int Int AddrRange AddrRange AddrRange AddrRange Int Int Int Int Int Int) Bool)
(declare-fun inv_main56 (Heap Int Int Int Int AddrRange AddrRange AddrRange AddrRange Int Int Int Int) Bool)
(assert (inv_main2 emptyHeap 899))
(assert (forall ((var0 Int) (var1 Int) (var2 Int) (var3 Int) (var4 Int) (var5 Int) (var6 AddrRange) (var7 AddrRange) (var8 AddrRange) (var9 AddrRange) (var10 Int) (var11 Int) (var12 Int) (var13 Int) (var14 Heap)) (or (not (and (inv_main53 var14 var13 var12 var11 var10 var9 var8 var7 var6 var5 var4 var3 var2 var1 var0) (and (is-O_Int (read var14 (nthAddrRange var7 var3))) (not (<= 0 (+ (+ var1 (* (- 1) (+ var0 (getInt (read var14 (nthAddrRange var7 var3)))))) (- 1))))))) (inv_main43 var14 var13 var12 var11 var10 var9 var8 var7 var6 var5 var4 (+ var3 1) var2))))
(assert (forall ((var0 Int) (var1 Int) (var2 Int) (var3 Int) (var4 AddrRange) (var5 AddrRange) (var6 AddrRange) (var7 AddrRange) (var8 Int) (var9 Int) (var10 Int) (var11 Int) (var12 Heap)) (or (not (and (inv_main21 var12 var11 var10 var9 var8 var7 var6 var5 var4 var3 var2 var1 var0) (and (not (<= 0 (+ var10 (- 1)))) (not (<= 0 (+ (+ var10 (* (- 1) var1)) (- 1))))))) (inv_main43 var12 var11 var10 var9 var8 var7 var6 var5 var4 var3 var2 0 var0))))
(assert (forall ((var0 Int) (var1 Int) (var2 Int) (var3 Int) (var4 AddrRange) (var5 AddrRange) (var6 AddrRange) (var7 AddrRange) (var8 Int) (var9 Int) (var10 Int) (var11 Int) (var12 Heap)) (or (not (and (inv_main31 var12 var11 var10 var9 var8 var7 var6 var5 var4 var3 var2 var1 var0) (and (not (<= 0 (+ (+ var10 (* (- 1) (+ var1 1))) (- 1)))) (not (<= 0 (+ (+ var9 (* (- 1) var0)) (- 1))))))) (inv_main43 var12 var11 var10 var9 var8 var7 var6 var5 var4 var3 var2 0 var0))))
(assert (forall ((var0 Int) (var1 Int) (var2 Int) (var3 Int) (var4 Int) (var5 AddrRange) (var6 AddrRange) (var7 AddrRange) (var8 AddrRange) (var9 Int) (var10 Int) (var11 Int) (var12 Int) (var13 Heap)) (or (not (and (inv_main40 var13 var12 var11 var10 var9 var8 var7 var6 var5 var4 var3 var2 var1 var0) (is-O_Int (read var13 (nthAddrRange var5 var3))))) (inv_main41 var13 var12 var11 var10 var9 var8 var7 var6 var5 var4 var3 var2 var1 var0 (getInt (read var13 (nthAddrRange var5 var3)))))))
(assert (forall ((var0 Int) (var1 Int) (var2 Int) (var3 Int) (var4 AddrRange) (var5 AddrRange) (var6 AddrRange) (var7 AddrRange) (var8 Int) (var9 Int) (var10 Int) (var11 Int) (var12 Heap)) (or (not (and (inv_main21 var12 var11 var10 var9 var8 var7 var6 var5 var4 var3 var2 var1 var0) (and (not (= var1 var8)) (<= 0 (+ (+ var10 (* (- 1) var1)) (- 1)))))) (inv_main26 var12 var11 var10 var9 var8 var7 var6 var5 var4 var3 var2 var1 var0 var11))))
(assert (forall ((var0 Int) (var1 Int) (var2 Int) (var3 Int) (var4 AddrRange) (var5 AddrRange) (var6 AddrRange) (var7 AddrRange) (var8 Int) (var9 Int) (var10 Int) (var11 Int) (var12 Heap)) (or (not (and (inv_main21 var12 var11 var10 var9 var8 var7 var6 var5 var4 var3 var2 var1 var0) (and (= var1 var8) (<= 0 (+ (+ var10 (* (- 1) var1)) (- 1)))))) (inv_main24 var12 var11 var10 var9 var8 var7 var6 var5 var4 var3 var2 var1 var0))))
(assert (forall ((var0 Int) (var1 Int) (var2 Int) (var3 Int) (var4 AddrRange) (var5 AddrRange) (var6 AddrRange) (var7 AddrRange) (var8 Int) (var9 Int) (var10 Int) (var11 Int) (var12 Heap)) (or (not (and (inv_main36 var12 var11 var10 var9 var8 var7 var6 var5 var4 var3 var2 var1 var0) (is-O_Int (read var12 (nthAddrRange var4 var3))))) (inv_main40 var12 var11 var10 var9 var8 var7 var6 var5 var4 var3 var2 var1 var0 (getInt (read var12 (nthAddrRange var4 var3)))))))
(assert (forall ((var0 Int) (var1 Int) (var2 Int) (var3 Int) (var4 Int) (var5 Int) (var6 AddrRange) (var7 AddrRange) (var8 AddrRange) (var9 AddrRange) (var10 Int) (var11 Int) (var12 Int) (var13 Int) (var14 Heap)) (or (not (and (inv_main41 var14 var13 var12 var11 var10 var9 var8 var7 var6 var5 var4 var3 var2 var1 var0) (and (is-O_Int (read var14 (nthAddrRange var7 var2))) (<= 0 (+ (+ var1 (* (- 1) (+ var0 (getInt (read var14 (nthAddrRange var7 var2)))))) (- 1)))))) (inv_main38 var14 var13 var12 var11 var10 var9 var8 var7 var6 var5 var4 var3 var2))))
(assert (forall ((var0 Int) (var1 Int) (var2 Int) (var3 Int) (var4 AddrRange) (var5 AddrRange) (var6 AddrRange) (var7 AddrRange) (var8 Int) (var9 Int) (var10 Int) (var11 Int) (var12 Heap)) (or (not (and (inv_main48 var12 var11 var10 var9 var8 var7 var6 var5 var4 var3 var2 var1 var0) (is-O_Int (read var12 (nthAddrRange var4 var3))))) (inv_main52 var12 var11 var10 var9 var8 var7 var6 var5 var4 var3 var2 var1 var0 (getInt (read var12 (nthAddrRange var4 var3)))))))
(assert (forall ((var0 Int) (var1 Int) (var2 Int) (var3 Int) (var4 Int) (var5 AddrRange) (var6 AddrRange) (var7 AddrRange) (var8 AddrRange) (var9 Int) (var10 Int) (var11 Int) (var12 Int) (var13 Heap)) (or (not (and (inv_main52 var13 var12 var11 var10 var9 var8 var7 var6 var5 var4 var3 var2 var1 var0) (is-O_Int (read var13 (nthAddrRange var5 var3))))) (inv_main53 var13 var12 var11 var10 var9 var8 var7 var6 var5 var4 var3 var2 var1 var0 (getInt (read var13 (nthAddrRange var5 var3)))))))
(assert (forall ((var0 Int) (var1 Int) (var2 Int) (var3 Int) (var4 Int) (var5 AddrRange) (var6 AddrRange) (var7 AddrRange) (var8 AddrRange) (var9 Int) (var10 Int) (var11 Int) (var12 Int) (var13 Heap) (var14 Int) (var15 Int) (var16 Int) (var17 Int) (var18 AddrRange) (var19 AddrRange) (var20 AddrRange) (var21 AddrRange) (var22 Int) (var23 Int) (var24 Int) (var25 Int) (var26 Heap)) (or (not (and (inv_main46 var26 var25 var24 var23 var22 var21 var20 var19 var18 var17 var16 var15 var14) (and (is-O_Int (read var26 (nthAddrRange var21 var15))) (and (and (and (and (and (and (and (and (and (and (and (and (and (= var13 var26) (= var12 var25)) (= var11 var24)) (= var10 var23)) (= var9 var22)) (= var8 var21)) (= var7 var20)) (= var6 var19)) (= var5 var18)) (= var4 var17)) (= var3 var16)) (= var2 var15)) (= var1 var14)) (= var0 (getInt (read var26 (nthAddrRange var21 var15)))))))) (inv_main48 var13 var12 var11 var10 var9 var8 var7 var6 var5 var4 var0 var2 var1))))
(assert (forall ((var0 Int) (var1 Int) (var2 Int) (var3 Int) (var4 AddrRange) (var5 AddrRange) (var6 AddrRange) (var7 AddrRange) (var8 Int) (var9 Int) (var10 Int) (var11 Int) (var12 Heap)) (or (not (and (inv_main31 var12 var11 var10 var9 var8 var7 var6 var5 var4 var3 var2 var1 var0) (<= 0 (+ (+ var9 (* (- 1) var0)) (- 1))))) (inv_main32 var12 var11 var10 var9 var8 var7 var6 var5 var4 var3 var2 var1 var0))))
(assert (forall ((var0 Int) (var1 Int) (var2 Int) (var3 Int) (var4 Int) (var5 AddrRange) (var6 AddrRange) (var7 AddrRange) (var8 AddrRange) (var9 Int) (var10 Int) (var11 Int) (var12 Int) (var13 Heap) (var14 Int) (var15 Int) (var16 Int) (var17 Int) (var18 AddrRange) (var19 AddrRange) (var20 AddrRange) (var21 AddrRange) (var22 Int) (var23 Int) (var24 Int) (var25 Int) (var26 Heap)) (or (not (and (inv_main34 var26 var25 var24 var23 var22 var21 var20 var19 var18 var17 var16 var15 var14) (and (is-O_Int (read var26 (nthAddrRange var21 var14))) (and (and (and (and (and (and (and (and (and (and (and (and (and (= var13 var26) (= var12 var25)) (= var11 var24)) (= var10 var23)) (= var9 var22)) (= var8 var21)) (= var7 var20)) (= var6 var19)) (= var5 var18)) (= var4 var17)) (= var3 var16)) (= var2 var15)) (= var1 var14)) (= var0 (getInt (read var26 (nthAddrRange var21 var14)))))))) (inv_main36 var13 var12 var11 var10 var9 var8 var7 var6 var5 var4 var0 var2 var1))))
(assert (forall ((var0 Int) (var1 Int) (var2 Int) (var3 Int) (var4 Int) (var5 AddrRange) (var6 AddrRange) (var7 AddrRange) (var8 AddrRange) (var9 Int) (var10 Int) (var11 Int) (var12 Int) (var13 Heap) (var14 Int) (var15 Int) (var16 Int) (var17 Int) (var18 AddrRange) (var19 AddrRange) (var20 AddrRange) (var21 AddrRange) (var22 Int) (var23 Int) (var24 Int) (var25 Int) (var26 Heap)) (or (not (and (inv_main32 var26 var25 var24 var23 var22 var21 var20 var19 var18 var17 var16 var15 var14) (and (is-O_Int (read var26 (nthAddrRange var20 var14))) (and (and (and (and (and (and (and (and (and (and (and (and (and (= var13 var26) (= var12 var25)) (= var11 var24)) (= var10 var23)) (= var9 var22)) (= var8 var21)) (= var7 var20)) (= var6 var19)) (= var5 var18)) (= var4 var17)) (= var3 var16)) (= var2 var15)) (= var1 var14)) (= var0 (getInt (read var26 (nthAddrRange var20 var14)))))))) (inv_main34 var13 var12 var11 var10 var9 var8 var7 var6 var5 var0 var3 var2 var1))))
(assert (forall ((var0 Int) (var1 Int) (var2 Int) (var3 Int) (var4 AddrRange) (var5 AddrRange) (var6 AddrRange) (var7 AddrRange) (var8 Int) (var9 Int) (var10 Int) (var11 Int) (var12 Heap)) (or (not (and (inv_main21 var12 var11 var10 var9 var8 var7 var6 var5 var4 var3 var2 var1 var0) (and (<= 0 (+ var10 (- 1))) (not (<= 0 (+ (+ var10 (* (- 1) var1)) (- 1))))))) (inv_main31 var12 var11 var10 var9 var8 var7 var6 var5 var4 var3 var2 0 0))))
(assert (forall ((var0 Int) (var1 Int) (var2 Int) (var3 Int) (var4 AddrRange) (var5 AddrRange) (var6 AddrRange) (var7 AddrRange) (var8 Int) (var9 Int) (var10 Int) (var11 Int) (var12 Heap)) (or (not (and (inv_main31 var12 var11 var10 var9 var8 var7 var6 var5 var4 var3 var2 var1 var0) (and (<= 0 (+ (+ var10 (* (- 1) (+ var1 1))) (- 1))) (not (<= 0 (+ (+ var9 (* (- 1) var0)) (- 1))))))) (inv_main31 var12 var11 var10 var9 var8 var7 var6 var5 var4 var3 var2 (+ var1 1) 0))))
(assert (forall ((var0 Int) (var1 Int) (var2 Int) (var3 Int) (var4 AddrRange) (var5 AddrRange) (var6 AddrRange) (var7 AddrRange) (var8 Int) (var9 Int) (var10 Int) (var11 Int) (var12 Heap) (var13 Int) (var14 Int) (var15 Int) (var16 Int) (var17 AddrRange) (var18 AddrRange) (var19 AddrRange) (var20 AddrRange) (var21 Int) (var22 Int) (var23 Int) (var24 Int) (var25 Heap)) (or (not (and (inv_main38 var25 var24 var23 var22 var21 var20 var19 var18 var17 var16 var15 var14 var13) (and (and (is-O_Int (read var25 (nthAddrRange var17 var16))) (is-O_Int (read var25 (nthAddrRange var17 var16)))) (and (and (and (and (and (and (and (and (and (and (and (and (= var12 (write var25 (nthAddrRange var17 var16) (O_Int (- 1)))) (= var11 var24)) (= var10 var23)) (= var9 var22)) (= var8 var21)) (= var7 var20)) (= var6 var19)) (= var5 var18)) (= var4 var17)) (= var3 var16)) (= var2 var15)) (= var1 var14)) (= var0 var13))))) (inv_main31 var12 var11 var10 var9 var8 var7 var6 var5 var4 var3 var2 var1 (+ var0 1)))))
(assert (forall ((var0 Int) (var1 Int) (var2 Int) (var3 Int) (var4 Int) (var5 Int) (var6 AddrRange) (var7 AddrRange) (var8 AddrRange) (var9 AddrRange) (var10 Int) (var11 Int) (var12 Int) (var13 Int) (var14 Heap)) (or (not (and (inv_main41 var14 var13 var12 var11 var10 var9 var8 var7 var6 var5 var4 var3 var2 var1 var0) (and (is-O_Int (read var14 (nthAddrRange var7 var2))) (not (<= 0 (+ (+ var1 (* (- 1) (+ var0 (getInt (read var14 (nthAddrRange var7 var2)))))) (- 1))))))) (inv_main31 var14 var13 var12 var11 var10 var9 var8 var7 var6 var5 var4 var3 (+ var2 1)))))
(assert (forall ((var0 Int) (var1 Int) (var2 Int) (var3 Int) (var4 AddrRange) (var5 AddrRange) (var6 AddrRange) (var7 AddrRange) (var8 Int) (var9 Int) (var10 Int) (var11 Int) (var12 Heap) (var13 Int) (var14 Int) (var15 Int) (var16 Int) (var17 AddrRange) (var18 AddrRange) (var19 AddrRange) (var20 AddrRange) (var21 Int) (var22 Int) (var23 Int) (var24 Int) (var25 Heap)) (or (not (and (inv_main24 var25 var24 var23 var22 var21 var20 var19 var18 var17 var16 var15 var14 var13) (and (and (is-O_Int (read var25 (nthAddrRange var17 var14))) (is-O_Int (read var25 (nthAddrRange var17 var14)))) (and (and (and (and (and (and (and (and (and (and (and (and (= var12 (write var25 (nthAddrRange var17 var14) (O_Int 0))) (= var11 var24)) (= var10 var23)) (= var9 var22)) (= var8 var21)) (= var7 var20)) (= var6 var19)) (= var5 var18)) (= var4 var17)) (= var3 var16)) (= var2 var15)) (= var1 var14)) (= var0 var13))))) (inv_main21 var12 var11 var10 var9 var8 var7 var6 var5 var4 var3 var2 (+ var1 1) var0))))
(assert (forall ((var0 Int) (var1 Int) (var2 Int) (var3 Int) (var4 AddrRange) (var5 AddrRange) (var6 AddrRange) (var7 AddrRange) (var8 Int) (var9 Int) (var10 Int) (var11 Int) (var12 Heap) (var13 Int) (var14 Int) (var15 Int) (var16 Int) (var17 Int) (var18 AddrRange) (var19 AddrRange) (var20 AddrRange) (var21 AddrRange) (var22 Int) (var23 Int) (var24 Int) (var25 Int) (var26 Heap)) (or (not (and (inv_main26 var26 var25 var24 var23 var22 var21 var20 var19 var18 var17 var16 var15 var14 var13) (and (and (is-O_Int (read var26 (nthAddrRange var18 var15))) (is-O_Int (read var26 (nthAddrRange var18 var15)))) (and (and (and (and (and (and (and (and (and (and (and (and (= var12 (write var26 (nthAddrRange var18 var15) (O_Int var13))) (= var11 var25)) (= var10 var24)) (= var9 var23)) (= var8 var22)) (= var7 var21)) (= var6 var20)) (= var5 var19)) (= var4 var18)) (= var3 var17)) (= var2 var16)) (= var1 var15)) (= var0 var14))))) (inv_main21 var12 var11 var10 var9 var8 var7 var6 var5 var4 var3 var2 (+ var1 1) var0))))
(assert (forall ((var0 Int) (var1 Int) (var2 Int) (var3 Int) (var4 Int) (var5 Heap) (var6 AddrRange) (var7 Int) (var8 Int) (var9 Int) (var10 Int) (var11 Heap) (var12 AddrRange) (var13 AddrRange) (var14 Int) (var15 Int) (var16 Int) (var17 Int) (var18 Heap) (var19 AddrRange) (var20 AddrRange) (var21 AddrRange) (var22 AddrRange) (var23 AddrRange) (var24 AddrRange) (var25 AddrRange) (var26 Int) (var27 Int) (var28 Int) (var29 Int) (var30 Int) (var31 Int) (var32 Int) (var33 Int) (var34 Int) (var35 Heap) (var36 Int) (var37 Heap)) (or (not (and (inv_main2 var37 var36) (and (and (and (and (and (and (and (and (and (and (and (and (= var35 (newBatchHeap (batchAlloc emptyHeap (O_Int var34) 5))) (= var33 var32)) (= var31 var30)) (= var29 var28)) (= var27 var26)) (= var25 var24)) (= var23 var22)) (= var21 var20)) (= var19 (newAddrRange (batchAlloc emptyHeap (O_Int var34) 5)))) (and (and (and (and (and (and (and (= var18 (write (write (write (write (write (write (write (write (write (write (write (write (write (write (write (write (write (write (write (write (newBatchHeap (batchAlloc emptyHeap (O_Int 0) 20)) (nthAddrRange (newAddrRange (batchAlloc emptyHeap (O_Int 0) 20)) 0) (O_Int 0)) (nthAddrRange (newAddrRange (batchAlloc emptyHeap (O_Int 0) 20)) 1) (O_Int 1)) (nthAddrRange (newAddrRange (batchAlloc emptyHeap (O_Int 0) 20)) 2) (O_Int 2)) (nthAddrRange (newAddrRange (batchAlloc emptyHeap (O_Int 0) 20)) 3) (O_Int 3)) (nthAddrRange (newAddrRange (batchAlloc emptyHeap (O_Int 0) 20)) 4) (O_Int 4)) (nthAddrRange (newAddrRange (batchAlloc emptyHeap (O_Int 0) 20)) 5) (O_Int 5)) (nthAddrRange (newAddrRange (batchAlloc emptyHeap (O_Int 0) 20)) 6) (O_Int 6)) (nthAddrRange (newAddrRange (batchAlloc emptyHeap (O_Int 0) 20)) 7) (O_Int 7)) (nthAddrRange (newAddrRange (batchAlloc emptyHeap (O_Int 0) 20)) 8) (O_Int 8)) (nthAddrRange (newAddrRange (batchAlloc emptyHeap (O_Int 0) 20)) 9) (O_Int 9)) (nthAddrRange (newAddrRange (batchAlloc emptyHeap (O_Int 0) 20)) 10) (O_Int 10)) (nthAddrRange (newAddrRange (batchAlloc emptyHeap (O_Int 0) 20)) 11) (O_Int 11)) (nthAddrRange (newAddrRange (batchAlloc emptyHeap (O_Int 0) 20)) 12) (O_Int 12)) (nthAddrRange (newAddrRange (batchAlloc emptyHeap (O_Int 0) 20)) 13) (O_Int 13)) (nthAddrRange (newAddrRange (batchAlloc emptyHeap (O_Int 0) 20)) 14) (O_Int 14)) (nthAddrRange (newAddrRange (batchAlloc emptyHeap (O_Int 0) 20)) 15) (O_Int 15)) (nthAddrRange (newAddrRange (batchAlloc emptyHeap (O_Int 0) 20)) 16) (O_Int 16)) (nthAddrRange (newAddrRange (batchAlloc emptyHeap (O_Int 0) 20)) 17) (O_Int 17)) (nthAddrRange (newAddrRange (batchAlloc emptyHeap (O_Int 0) 20)) 18) (O_Int 18)) (nthAddrRange (newAddrRange (batchAlloc emptyHeap (O_Int 0) 20)) 19) (O_Int 19))) (= var32 var17)) (= var30 var16)) (= var28 var15)) (= var26 var14)) (= var24 var13)) (= var22 var12)) (= var20 (newAddrRange (batchAlloc emptyHeap (O_Int 0) 20))))) (and (and (and (and (and (and (= var11 (write (write (write (write (write (write (write (write (write (write (write (write (write (write (write (write (write (write (write (write (newBatchHeap (batchAlloc emptyHeap (O_Int 0) 20)) (nthAddrRange (newAddrRange (batchAlloc emptyHeap (O_Int 0) 20)) 0) (O_Int 1)) (nthAddrRange (newAddrRange (batchAlloc emptyHeap (O_Int 0) 20)) 1) (O_Int 3)) (nthAddrRange (newAddrRange (batchAlloc emptyHeap (O_Int 0) 20)) 2) (O_Int 4)) (nthAddrRange (newAddrRange (batchAlloc emptyHeap (O_Int 0) 20)) 3) (O_Int 1)) (nthAddrRange (newAddrRange (batchAlloc emptyHeap (O_Int 0) 20)) 4) (O_Int 1)) (nthAddrRange (newAddrRange (batchAlloc emptyHeap (O_Int 0) 20)) 5) (O_Int 4)) (nthAddrRange (newAddrRange (batchAlloc emptyHeap (O_Int 0) 20)) 6) (O_Int 3)) (nthAddrRange (newAddrRange (batchAlloc emptyHeap (O_Int 0) 20)) 7) (O_Int 4)) (nthAddrRange (newAddrRange (batchAlloc emptyHeap (O_Int 0) 20)) 8) (O_Int 3)) (nthAddrRange (newAddrRange (batchAlloc emptyHeap (O_Int 0) 20)) 9) (O_Int 0)) (nthAddrRange (newAddrRange (batchAlloc emptyHeap (O_Int 0) 20)) 10) (O_Int 0)) (nthAddrRange (newAddrRange (batchAlloc emptyHeap (O_Int 0) 20)) 11) (O_Int 0)) (nthAddrRange (newAddrRange (batchAlloc emptyHeap (O_Int 0) 20)) 12) (O_Int 0)) (nthAddrRange (newAddrRange (batchAlloc emptyHeap (O_Int 0) 20)) 13) (O_Int 2)) (nthAddrRange (newAddrRange (batchAlloc emptyHeap (O_Int 0) 20)) 14) (O_Int 3)) (nthAddrRange (newAddrRange (batchAlloc emptyHeap (O_Int 0) 20)) 15) (O_Int 0)) (nthAddrRange (newAddrRange (batchAlloc emptyHeap (O_Int 0) 20)) 16) (O_Int 2)) (nthAddrRange (newAddrRange (batchAlloc emptyHeap (O_Int 0) 20)) 17) (O_Int 1)) (nthAddrRange (newAddrRange (batchAlloc emptyHeap (O_Int 0) 20)) 18) (O_Int 0)) (nthAddrRange (newAddrRange (batchAlloc emptyHeap (O_Int 0) 20)) 19) (O_Int 4))) (= var17 var10)) (= var16 var9)) (= var15 var8)) (= var14 var7)) (= var13 var6)) (= var12 (newAddrRange (batchAlloc emptyHeap (O_Int 0) 20))))) (and (and (and (and (and (= var5 (write (write (write (write (write (write (write (write (write (write (write (write (write (write (write (write (write (write (write (write (newBatchHeap (batchAlloc emptyHeap (O_Int 0) 20)) (nthAddrRange (newAddrRange (batchAlloc emptyHeap (O_Int 0) 20)) 0) (O_Int 0)) (nthAddrRange (newAddrRange (batchAlloc emptyHeap (O_Int 0) 20)) 1) (O_Int 4)) (nthAddrRange (newAddrRange (batchAlloc emptyHeap (O_Int 0) 20)) 2) (O_Int 1)) (nthAddrRange (newAddrRange (batchAlloc emptyHeap (O_Int 0) 20)) 3) (O_Int 1)) (nthAddrRange (newAddrRange (batchAlloc emptyHeap (O_Int 0) 20)) 4) (O_Int 0)) (nthAddrRange (newAddrRange (batchAlloc emptyHeap (O_Int 0) 20)) 5) (O_Int 0)) (nthAddrRange (newAddrRange (batchAlloc emptyHeap (O_Int 0) 20)) 6) (O_Int 1)) (nthAddrRange (newAddrRange (batchAlloc emptyHeap (O_Int 0) 20)) 7) (O_Int 3)) (nthAddrRange (newAddrRange (batchAlloc emptyHeap (O_Int 0) 20)) 8) (O_Int 4)) (nthAddrRange (newAddrRange (batchAlloc emptyHeap (O_Int 0) 20)) 9) (O_Int 4)) (nthAddrRange (newAddrRange (batchAlloc emptyHeap (O_Int 0) 20)) 10) (O_Int 2)) (nthAddrRange (newAddrRange (batchAlloc emptyHeap (O_Int 0) 20)) 11) (O_Int 2)) (nthAddrRange (newAddrRange (batchAlloc emptyHeap (O_Int 0) 20)) 12) (O_Int 3)) (nthAddrRange (newAddrRange (batchAlloc emptyHeap (O_Int 0) 20)) 13) (O_Int 0)) (nthAddrRange (newAddrRange (batchAlloc emptyHeap (O_Int 0) 20)) 14) (O_Int 0)) (nthAddrRange (newAddrRange (batchAlloc emptyHeap (O_Int 0) 20)) 15) (O_Int 3)) (nthAddrRange (newAddrRange (batchAlloc emptyHeap (O_Int 0) 20)) 16) (O_Int 1)) (nthAddrRange (newAddrRange (batchAlloc emptyHeap (O_Int 0) 20)) 17) (O_Int 2)) (nthAddrRange (newAddrRange (batchAlloc emptyHeap (O_Int 0) 20)) 18) (O_Int 2)) (nthAddrRange (newAddrRange (batchAlloc emptyHeap (O_Int 0) 20)) 19) (O_Int 3))) (= var10 var36)) (= var9 var4)) (= var8 var3)) (= var7 0)) (= var6 (newAddrRange (batchAlloc emptyHeap (O_Int 0) 20))))) (and (and (<= 0 var3) (<= 0 (+ 19 (* (- 1) var3)))) (and (<= 0 var4) (<= 0 (+ 4 (* (- 1) var4)))))))) (inv_main21 var35 var33 var31 var29 var27 var25 var23 var21 var19 var2 var1 0 var0))))
(assert (forall ((var0 Int) (var1 Int) (var2 Int) (var3 Int) (var4 AddrRange) (var5 AddrRange) (var6 AddrRange) (var7 AddrRange) (var8 Int) (var9 Int) (var10 Int) (var11 Int) (var12 Heap)) (or (not (and (inv_main43 var12 var11 var10 var9 var8 var7 var6 var5 var4 var3 var2 var1 var0) (<= 0 (+ (+ var9 (* (- 1) var1)) (- 1))))) (inv_main44 var12 var11 var10 var9 var8 var7 var6 var5 var4 var3 var2 var1 var0))))
(assert (forall ((var0 Int) (var1 Int) (var2 Int) (var3 Int) (var4 Int) (var5 AddrRange) (var6 AddrRange) (var7 AddrRange) (var8 AddrRange) (var9 Int) (var10 Int) (var11 Int) (var12 Int) (var13 Heap) (var14 Int) (var15 Int) (var16 Int) (var17 Int) (var18 AddrRange) (var19 AddrRange) (var20 AddrRange) (var21 AddrRange) (var22 Int) (var23 Int) (var24 Int) (var25 Int) (var26 Heap)) (or (not (and (inv_main44 var26 var25 var24 var23 var22 var21 var20 var19 var18 var17 var16 var15 var14) (and (is-O_Int (read var26 (nthAddrRange var20 var15))) (and (and (and (and (and (and (and (and (and (and (and (and (and (= var13 var26) (= var12 var25)) (= var11 var24)) (= var10 var23)) (= var9 var22)) (= var8 var21)) (= var7 var20)) (= var6 var19)) (= var5 var18)) (= var4 var17)) (= var3 var16)) (= var2 var15)) (= var1 var14)) (= var0 (getInt (read var26 (nthAddrRange var20 var15)))))))) (inv_main46 var13 var12 var11 var10 var9 var8 var7 var6 var5 var0 var3 var2 var1))))
(assert (forall ((var0 Int) (var1 Int) (var2 Int) (var3 Int) (var4 AddrRange) (var5 AddrRange) (var6 AddrRange) (var7 AddrRange) (var8 Int) (var9 Int) (var10 Int) (var11 Int) (var12 Heap)) (or (not (and (inv_main43 var12 var11 var10 var9 var8 var7 var6 var5 var4 var3 var2 var1 var0) (and (<= 0 (+ var10 (- 1))) (not (<= 0 (+ (+ var9 (* (- 1) var1)) (- 1))))))) (inv_main56 var12 var11 var10 var9 var8 var7 var6 var5 var4 var3 var2 0 var0))))
(assert (forall ((var0 Int) (var1 Int) (var2 Int) (var3 Int) (var4 AddrRange) (var5 AddrRange) (var6 AddrRange) (var7 AddrRange) (var8 Int) (var9 Int) (var10 Int) (var11 Int) (var12 Heap)) (or (not (and (inv_main56 var12 var11 var10 var9 var8 var7 var6 var5 var4 var3 var2 var1 var0) (and (<= 0 (+ (+ var10 (* (- 1) (+ var1 1))) (- 1))) (is-O_Int (read var12 (nthAddrRange var4 var1)))))) (inv_main56 var12 var11 var10 var9 var8 var7 var6 var5 var4 var3 var2 (+ var1 1) var0))))
(assert (forall ((var0 Int) (var1 Int) (var2 Int) (var3 Int) (var4 AddrRange) (var5 AddrRange) (var6 AddrRange) (var7 AddrRange) (var8 Int) (var9 Int) (var10 Int) (var11 Int) (var12 Heap)) (not (and (inv_main24 var12 var11 var10 var9 var8 var7 var6 var5 var4 var3 var2 var1 var0) (not (is-O_Int (read var12 (nthAddrRange var4 var1))))))))
(assert (forall ((var0 Int) (var1 Int) (var2 Int) (var3 Int) (var4 AddrRange) (var5 AddrRange) (var6 AddrRange) (var7 AddrRange) (var8 Int) (var9 Int) (var10 Int) (var11 Int) (var12 Heap)) (not (and (inv_main24 var12 var11 var10 var9 var8 var7 var6 var5 var4 var3 var2 var1 var0) (and (is-O_Int (read var12 (nthAddrRange var4 var1))) (not (within var4 (nthAddrRange var4 var1))))))))
(assert (forall ((var0 Int) (var1 Int) (var2 Int) (var3 Int) (var4 AddrRange) (var5 AddrRange) (var6 AddrRange) (var7 AddrRange) (var8 Int) (var9 Int) (var10 Int) (var11 Int) (var12 Heap)) (not (and (inv_main24 var12 var11 var10 var9 var8 var7 var6 var5 var4 var3 var2 var1 var0) (and (is-O_Int (read var12 (nthAddrRange var4 var1))) (not (is-O_Int (read var12 (nthAddrRange var4 var1)))))))))
(assert (forall ((var0 Int) (var1 Int) (var2 Int) (var3 Int) (var4 Int) (var5 AddrRange) (var6 AddrRange) (var7 AddrRange) (var8 AddrRange) (var9 Int) (var10 Int) (var11 Int) (var12 Int) (var13 Heap)) (not (and (inv_main26 var13 var12 var11 var10 var9 var8 var7 var6 var5 var4 var3 var2 var1 var0) (not (is-O_Int (read var13 (nthAddrRange var5 var2))))))))
(assert (forall ((var0 Int) (var1 Int) (var2 Int) (var3 Int) (var4 Int) (var5 AddrRange) (var6 AddrRange) (var7 AddrRange) (var8 AddrRange) (var9 Int) (var10 Int) (var11 Int) (var12 Int) (var13 Heap)) (not (and (inv_main26 var13 var12 var11 var10 var9 var8 var7 var6 var5 var4 var3 var2 var1 var0) (and (is-O_Int (read var13 (nthAddrRange var5 var2))) (not (within var5 (nthAddrRange var5 var2))))))))
(assert (forall ((var0 Int) (var1 Int) (var2 Int) (var3 Int) (var4 Int) (var5 AddrRange) (var6 AddrRange) (var7 AddrRange) (var8 AddrRange) (var9 Int) (var10 Int) (var11 Int) (var12 Int) (var13 Heap)) (not (and (inv_main26 var13 var12 var11 var10 var9 var8 var7 var6 var5 var4 var3 var2 var1 var0) (and (is-O_Int (read var13 (nthAddrRange var5 var2))) (not (is-O_Int (read var13 (nthAddrRange var5 var2)))))))))
(assert (forall ((var0 Int) (var1 Int) (var2 Int) (var3 Int) (var4 AddrRange) (var5 AddrRange) (var6 AddrRange) (var7 AddrRange) (var8 Int) (var9 Int) (var10 Int) (var11 Int) (var12 Heap)) (not (and (inv_main32 var12 var11 var10 var9 var8 var7 var6 var5 var4 var3 var2 var1 var0) (not (is-O_Int (read var12 (nthAddrRange var6 var0))))))))
(assert (forall ((var0 Int) (var1 Int) (var2 Int) (var3 Int) (var4 AddrRange) (var5 AddrRange) (var6 AddrRange) (var7 AddrRange) (var8 Int) (var9 Int) (var10 Int) (var11 Int) (var12 Heap)) (not (and (inv_main32 var12 var11 var10 var9 var8 var7 var6 var5 var4 var3 var2 var1 var0) (and (is-O_Int (read var12 (nthAddrRange var6 var0))) (not (within var6 (nthAddrRange var6 var0))))))))
(assert (forall ((var0 Int) (var1 Int) (var2 Int) (var3 Int) (var4 AddrRange) (var5 AddrRange) (var6 AddrRange) (var7 AddrRange) (var8 Int) (var9 Int) (var10 Int) (var11 Int) (var12 Heap)) (not (and (inv_main34 var12 var11 var10 var9 var8 var7 var6 var5 var4 var3 var2 var1 var0) (not (is-O_Int (read var12 (nthAddrRange var7 var0))))))))
(assert (forall ((var0 Int) (var1 Int) (var2 Int) (var3 Int) (var4 AddrRange) (var5 AddrRange) (var6 AddrRange) (var7 AddrRange) (var8 Int) (var9 Int) (var10 Int) (var11 Int) (var12 Heap)) (not (and (inv_main34 var12 var11 var10 var9 var8 var7 var6 var5 var4 var3 var2 var1 var0) (and (is-O_Int (read var12 (nthAddrRange var7 var0))) (not (within var7 (nthAddrRange var7 var0))))))))
(assert (forall ((var0 Int) (var1 Int) (var2 Int) (var3 Int) (var4 AddrRange) (var5 AddrRange) (var6 AddrRange) (var7 AddrRange) (var8 Int) (var9 Int) (var10 Int) (var11 Int) (var12 Heap)) (not (and (inv_main36 var12 var11 var10 var9 var8 var7 var6 var5 var4 var3 var2 var1 var0) (not (is-O_Int (read var12 (nthAddrRange var4 var3))))))))
(assert (forall ((var0 Int) (var1 Int) (var2 Int) (var3 Int) (var4 AddrRange) (var5 AddrRange) (var6 AddrRange) (var7 AddrRange) (var8 Int) (var9 Int) (var10 Int) (var11 Int) (var12 Heap)) (not (and (inv_main36 var12 var11 var10 var9 var8 var7 var6 var5 var4 var3 var2 var1 var0) (and (is-O_Int (read var12 (nthAddrRange var4 var3))) (not (within var4 (nthAddrRange var4 var3))))))))
(assert (forall ((var0 Int) (var1 Int) (var2 Int) (var3 Int) (var4 Int) (var5 AddrRange) (var6 AddrRange) (var7 AddrRange) (var8 AddrRange) (var9 Int) (var10 Int) (var11 Int) (var12 Int) (var13 Heap)) (not (and (inv_main40 var13 var12 var11 var10 var9 var8 var7 var6 var5 var4 var3 var2 var1 var0) (not (is-O_Int (read var13 (nthAddrRange var5 var3))))))))
(assert (forall ((var0 Int) (var1 Int) (var2 Int) (var3 Int) (var4 Int) (var5 AddrRange) (var6 AddrRange) (var7 AddrRange) (var8 AddrRange) (var9 Int) (var10 Int) (var11 Int) (var12 Int) (var13 Heap)) (not (and (inv_main40 var13 var12 var11 var10 var9 var8 var7 var6 var5 var4 var3 var2 var1 var0) (and (is-O_Int (read var13 (nthAddrRange var5 var3))) (not (within var5 (nthAddrRange var5 var3))))))))
(assert (forall ((var0 Int) (var1 Int) (var2 Int) (var3 Int) (var4 Int) (var5 Int) (var6 AddrRange) (var7 AddrRange) (var8 AddrRange) (var9 AddrRange) (var10 Int) (var11 Int) (var12 Int) (var13 Int) (var14 Heap)) (not (and (inv_main41 var14 var13 var12 var11 var10 var9 var8 var7 var6 var5 var4 var3 var2 var1 var0) (not (is-O_Int (read var14 (nthAddrRange var7 var2))))))))
(assert (forall ((var0 Int) (var1 Int) (var2 Int) (var3 Int) (var4 Int) (var5 Int) (var6 AddrRange) (var7 AddrRange) (var8 AddrRange) (var9 AddrRange) (var10 Int) (var11 Int) (var12 Int) (var13 Int) (var14 Heap)) (not (and (inv_main41 var14 var13 var12 var11 var10 var9 var8 var7 var6 var5 var4 var3 var2 var1 var0) (and (is-O_Int (read var14 (nthAddrRange var7 var2))) (not (within var7 (nthAddrRange var7 var2))))))))
(assert (forall ((var0 Int) (var1 Int) (var2 Int) (var3 Int) (var4 AddrRange) (var5 AddrRange) (var6 AddrRange) (var7 AddrRange) (var8 Int) (var9 Int) (var10 Int) (var11 Int) (var12 Heap)) (not (and (inv_main38 var12 var11 var10 var9 var8 var7 var6 var5 var4 var3 var2 var1 var0) (not (is-O_Int (read var12 (nthAddrRange var4 var3))))))))
(assert (forall ((var0 Int) (var1 Int) (var2 Int) (var3 Int) (var4 AddrRange) (var5 AddrRange) (var6 AddrRange) (var7 AddrRange) (var8 Int) (var9 Int) (var10 Int) (var11 Int) (var12 Heap)) (not (and (inv_main38 var12 var11 var10 var9 var8 var7 var6 var5 var4 var3 var2 var1 var0) (and (is-O_Int (read var12 (nthAddrRange var4 var3))) (not (within var4 (nthAddrRange var4 var3))))))))
(assert (forall ((var0 Int) (var1 Int) (var2 Int) (var3 Int) (var4 AddrRange) (var5 AddrRange) (var6 AddrRange) (var7 AddrRange) (var8 Int) (var9 Int) (var10 Int) (var11 Int) (var12 Heap)) (not (and (inv_main38 var12 var11 var10 var9 var8 var7 var6 var5 var4 var3 var2 var1 var0) (and (is-O_Int (read var12 (nthAddrRange var4 var3))) (not (is-O_Int (read var12 (nthAddrRange var4 var3)))))))))
(assert (forall ((var0 Int) (var1 Int) (var2 Int) (var3 Int) (var4 AddrRange) (var5 AddrRange) (var6 AddrRange) (var7 AddrRange) (var8 Int) (var9 Int) (var10 Int) (var11 Int) (var12 Heap)) (not (and (inv_main44 var12 var11 var10 var9 var8 var7 var6 var5 var4 var3 var2 var1 var0) (not (is-O_Int (read var12 (nthAddrRange var6 var1))))))))
(assert (forall ((var0 Int) (var1 Int) (var2 Int) (var3 Int) (var4 AddrRange) (var5 AddrRange) (var6 AddrRange) (var7 AddrRange) (var8 Int) (var9 Int) (var10 Int) (var11 Int) (var12 Heap)) (not (and (inv_main44 var12 var11 var10 var9 var8 var7 var6 var5 var4 var3 var2 var1 var0) (and (is-O_Int (read var12 (nthAddrRange var6 var1))) (not (within var6 (nthAddrRange var6 var1))))))))
(assert (forall ((var0 Int) (var1 Int) (var2 Int) (var3 Int) (var4 AddrRange) (var5 AddrRange) (var6 AddrRange) (var7 AddrRange) (var8 Int) (var9 Int) (var10 Int) (var11 Int) (var12 Heap)) (not (and (inv_main46 var12 var11 var10 var9 var8 var7 var6 var5 var4 var3 var2 var1 var0) (not (is-O_Int (read var12 (nthAddrRange var7 var1))))))))
(assert (forall ((var0 Int) (var1 Int) (var2 Int) (var3 Int) (var4 AddrRange) (var5 AddrRange) (var6 AddrRange) (var7 AddrRange) (var8 Int) (var9 Int) (var10 Int) (var11 Int) (var12 Heap)) (not (and (inv_main46 var12 var11 var10 var9 var8 var7 var6 var5 var4 var3 var2 var1 var0) (and (is-O_Int (read var12 (nthAddrRange var7 var1))) (not (within var7 (nthAddrRange var7 var1))))))))
(assert (forall ((var0 Int) (var1 Int) (var2 Int) (var3 Int) (var4 AddrRange) (var5 AddrRange) (var6 AddrRange) (var7 AddrRange) (var8 Int) (var9 Int) (var10 Int) (var11 Int) (var12 Heap)) (not (and (inv_main48 var12 var11 var10 var9 var8 var7 var6 var5 var4 var3 var2 var1 var0) (not (is-O_Int (read var12 (nthAddrRange var4 var3))))))))
(assert (forall ((var0 Int) (var1 Int) (var2 Int) (var3 Int) (var4 AddrRange) (var5 AddrRange) (var6 AddrRange) (var7 AddrRange) (var8 Int) (var9 Int) (var10 Int) (var11 Int) (var12 Heap)) (not (and (inv_main48 var12 var11 var10 var9 var8 var7 var6 var5 var4 var3 var2 var1 var0) (and (is-O_Int (read var12 (nthAddrRange var4 var3))) (not (within var4 (nthAddrRange var4 var3))))))))
(assert (forall ((var0 Int) (var1 Int) (var2 Int) (var3 Int) (var4 Int) (var5 AddrRange) (var6 AddrRange) (var7 AddrRange) (var8 AddrRange) (var9 Int) (var10 Int) (var11 Int) (var12 Int) (var13 Heap)) (not (and (inv_main52 var13 var12 var11 var10 var9 var8 var7 var6 var5 var4 var3 var2 var1 var0) (not (is-O_Int (read var13 (nthAddrRange var5 var3))))))))
(assert (forall ((var0 Int) (var1 Int) (var2 Int) (var3 Int) (var4 Int) (var5 AddrRange) (var6 AddrRange) (var7 AddrRange) (var8 AddrRange) (var9 Int) (var10 Int) (var11 Int) (var12 Int) (var13 Heap)) (not (and (inv_main52 var13 var12 var11 var10 var9 var8 var7 var6 var5 var4 var3 var2 var1 var0) (and (is-O_Int (read var13 (nthAddrRange var5 var3))) (not (within var5 (nthAddrRange var5 var3))))))))
(assert (forall ((var0 Int) (var1 Int) (var2 Int) (var3 Int) (var4 Int) (var5 Int) (var6 AddrRange) (var7 AddrRange) (var8 AddrRange) (var9 AddrRange) (var10 Int) (var11 Int) (var12 Int) (var13 Int) (var14 Heap)) (not (and (inv_main53 var14 var13 var12 var11 var10 var9 var8 var7 var6 var5 var4 var3 var2 var1 var0) (not (is-O_Int (read var14 (nthAddrRange var7 var3))))))))
(assert (forall ((var0 Int) (var1 Int) (var2 Int) (var3 Int) (var4 Int) (var5 Int) (var6 AddrRange) (var7 AddrRange) (var8 AddrRange) (var9 AddrRange) (var10 Int) (var11 Int) (var12 Int) (var13 Int) (var14 Heap)) (not (and (inv_main53 var14 var13 var12 var11 var10 var9 var8 var7 var6 var5 var4 var3 var2 var1 var0) (and (is-O_Int (read var14 (nthAddrRange var7 var3))) (not (within var7 (nthAddrRange var7 var3))))))))
(assert (forall ((var0 Int) (var1 Int) (var2 Int) (var3 Int) (var4 AddrRange) (var5 AddrRange) (var6 AddrRange) (var7 AddrRange) (var8 Int) (var9 Int) (var10 Int) (var11 Int) (var12 Heap)) (not (and (inv_main56 var12 var11 var10 var9 var8 var7 var6 var5 var4 var3 var2 var1 var0) (not (is-O_Int (read var12 (nthAddrRange var4 var1))))))))
(assert (forall ((var0 Int) (var1 Int) (var2 Int) (var3 Int) (var4 AddrRange) (var5 AddrRange) (var6 AddrRange) (var7 AddrRange) (var8 Int) (var9 Int) (var10 Int) (var11 Int) (var12 Heap)) (not (and (inv_main56 var12 var11 var10 var9 var8 var7 var6 var5 var4 var3 var2 var1 var0) (not (within var4 (nthAddrRange var4 var1)))))))
(assert (forall ((var0 Int) (var1 Int) (var2 Int) (var3 Int) (var4 AddrRange) (var5 AddrRange) (var6 AddrRange) (var7 AddrRange) (var8 Int) (var9 Int) (var10 Int) (var11 Int) (var12 Heap)) (not (and (inv_main56 var12 var11 var10 var9 var8 var7 var6 var5 var4 var3 var2 var1 var0) (not (is-O_Int (read var12 (nthAddrRange var4 var1))))))))
(assert (forall ((var0 Int) (var1 Int) (var2 Int) (var3 Int) (var4 AddrRange) (var5 AddrRange) (var6 AddrRange) (var7 AddrRange) (var8 Int) (var9 Int) (var10 Int) (var11 Int) (var12 Heap)) (not (and (inv_main56 var12 var11 var10 var9 var8 var7 var6 var5 var4 var3 var2 var1 var0) (and (is-O_Int (read var12 (nthAddrRange var4 var1))) (not (within var4 (nthAddrRange var4 var1))))))))
(assert (forall ((var0 Int) (var1 Int) (var2 Int) (var3 Int) (var4 AddrRange) (var5 AddrRange) (var6 AddrRange) (var7 AddrRange) (var8 Int) (var9 Int) (var10 Int) (var11 Int) (var12 Heap)) (not (and (inv_main56 var12 var11 var10 var9 var8 var7 var6 var5 var4 var3 var2 var1 var0) (and (is-O_Int (read var12 (nthAddrRange var4 var1))) (not (<= 0 (getInt (read var12 (nthAddrRange var4 var1))))))))))
(check-sat)
